12572
1 0 1 1 1 0 0 0 0 1 1 0 1 1 1 1 1 0 0 1
3 2 12 0 4 2 12 12 12 2 0 19 13 3 0 19 16 0 0 0 19 3 0 0 19 4 14 12 19 9 13 9 15 15 13 0 15 15 0 9 16 15 2 3 15 14 4 9 15 13 13 9 15 14 9 10 3 15 16 3 3 15 16 2 2 12 14 12 0 13 9 10 2 0 9 14 4 13 19 15